
Gurobi 11.0.3 (mac64[x86]) logging started Tue Apr 15 14:12:20 2025

Set parameter LogFile to value "Results/SanityCheck/try_5_big.log"
Set parameter TimeLimit to value 84600
Set parameter Method to value 2
Set parameter Crossover to value 0
Set parameter BarHomogeneous to value 1
Set parameter BarConvTol to value 1e-10
Gurobi Optimizer version 11.0.3 build v11.0.3rc0 (mac64[x86] - Darwin 23.4.0 23E214)

CPU model: Intel(R) Core(TM) i7-1060NG7 CPU @ 1.20GHz
Thread count: 4 physical cores, 8 logical processors, using up to 8 threads

Optimize a model with 1496320 rows, 1917920 columns and 7073808 nonzeros
Model fingerprint: 0x0206b90b
Coefficient statistics:
  Matrix range     [2e-01, 1e+00]
  Objective range  [6e-05, 5e+00]
  Bounds range     [0e+00, 0e+00]
  RHS range        [1e-02, 1e+03]
Presolve removed 1229616 rows and 1422992 columns (presolve time = 5s) ...
Presolve removed 1231392 rows and 1423104 columns
Presolve time: 5.70s
Presolved: 264928 rows, 494912 columns, 1757664 nonzeros
Ordering time: 0.02s

Barrier statistics:
 AA' NZ     : 1.899e+04
 Factor NZ  : 7.997e+04 (roughly 6 MB of memory)
 Factor Ops : 1.675e+06 (less than 1 second per iteration)
 Threads    : 4

                  Objective                Residual
Iter       Primal          Dual         Primal    Dual     Compl     Time
   0   3.83525166e+05  6.24277469e+07  5.04e+02 6.22e+03  1.07e+06     6s
   1  -5.26462337e+05  1.23793268e+08  9.65e+01 4.22e+03  2.22e+05     6s
   2  -5.73048742e+05  6.76800321e+07  1.24e+01 5.64e+02  3.46e+04     6s
   3  -5.61012108e+05  1.75283415e+07  4.35e-14 1.67e+01  2.17e+03     6s
   4  -3.44870410e+05  9.14164180e+05  1.73e-12 1.12e+00  1.45e+02     6s
   5  -1.18197319e+05  2.13733834e+05  1.24e-11 2.31e-01  3.51e+01     6s
   6  -2.63089995e+04  8.38267743e+04  4.65e-12 5.80e-02  1.09e+01     6s
   7   2.81532346e+04  4.82780259e+04  3.48e-12 8.54e-03  1.95e+00     6s
   8   3.79556616e+04  4.10978037e+04  1.80e-11 1.39e-03  3.03e-01     6s
   9   3.94466779e+04  4.03770060e+04  2.09e-11 4.93e-04  9.02e-02     6s
  10   3.96358662e+04  4.02292946e+04  1.62e-11 3.31e-04  5.67e-02     6s
  11   3.98382411e+04  4.00940048e+04  1.02e-11 1.75e-04  2.40e-02     6s
  12   3.99435748e+04  3.99797558e+04  3.58e-11 5.79e-05  3.24e-03     6s
  13   3.99559435e+04  3.99672240e+04  8.48e-11 2.27e-05  9.81e-04     6s
  14   3.99588609e+04  3.99617775e+04  1.45e-10 5.28e-06  2.48e-04     6s
  15   3.99599640e+04  3.99606220e+04  1.19e-09 1.41e-06  5.62e-05     6s
  16   3.99600735e+04  3.99602501e+04  2.22e-09 8.96e-08  1.43e-05     6s
  17   3.99602065e+04  3.99602245e+04  2.50e-10 1.52e-08  1.45e-06     6s
  18   3.99602229e+04  3.99602229e+04  5.60e-11 2.34e-08  3.82e-09     6s
  19   3.99602229e+04  3.99602229e+04  2.84e-11 4.65e-09  9.57e-12     6s

Barrier solved model in 19 iterations and 6.14 seconds (3.49 work units)
Optimal objective 3.99602229e+04

